language ESSENCE' 1.0

letting jobs = 102
letting horizon = 811
letting resourcesRenew = 2
letting resourcesNonrenew = 2
letting resourceLimits = [16, 19, 154, 142]
letting successors = [[2, 3, 4, 5, 6, 7, 8, 9, 10, 11, 12, 14, 15, 19, 20, 21, 26, 27, 43], [55, 53, 47, 42, 41, 37, 33, 31, 30, 28, 25, 23, 17], [55, 51, 47, 46, 40, 39, 37, 28, 25, 16], [53, 46, 37, 36, 34, 24, 18, 13], [66, 63, 54, 53, 46, 45, 39, 37, 33, 30, 25, 24], [63, 54, 53, 48, 46, 45, 44, 39, 38, 37, 35, 32, 30], [63, 62, 47, 45, 44, 30, 29, 22], [66, 59, 55, 54, 53, 51, 48, 47, 39, 37, 35, 30], [63, 61, 55, 53, 51, 50, 45, 42, 38, 37, 33], [74, 66, 63, 61, 57, 55, 54, 51, 48, 45, 39, 34], [74, 66, 63, 59, 55, 51, 50, 48, 39, 36, 33], [74, 66, 62, 59, 54, 53, 50, 45, 36, 33], [74, 63, 61, 54, 49, 44, 39, 32], [74, 61, 55, 54, 46, 40, 34, 32], [61, 60, 57, 56, 55, 54, 53, 51, 48, 44, 39], [66, 64, 61, 59, 54, 52, 50, 33, 31], [74, 66, 54, 51, 49, 46, 45, 39, 32], [74, 66, 63, 62, 60, 57, 54, 49, 48, 39], [78, 74, 66, 62, 59, 54, 53, 50, 49, 37], [66, 62, 59, 57, 55, 54, 50, 49, 39], [78, 74, 71, 58, 56, 54, 50, 45, 38], [74, 65, 61, 56, 50, 48, 46, 37], [77, 74, 66, 60, 59, 57, 56, 48, 39], [78, 74, 70, 62, 60, 57, 55, 49, 48], [61, 59, 49, 35], [78, 75, 71, 62, 59, 58, 56, 53, 52, 50], [101, 82, 74, 70, 69, 67, 66, 65, 64, 62, 61, 57, 56], [101, 82, 78, 74, 71, 67, 66, 65, 58, 56, 50], [77, 74, 72, 71, 70, 69, 67, 61, 58, 56, 54], [83, 82, 77, 74, 67, 61, 60, 57, 49], [78, 77, 74, 70, 69, 62, 60, 57, 48], [78, 65, 62, 57, 52, 50], [82, 77, 70, 67, 65, 60, 57, 49], [82, 75, 67, 65, 50, 49], [101, 83, 82, 81, 76, 75, 74, 71, 67, 64, 50], [71, 69, 64, 61, 56, 52], [83, 77, 73, 71, 69, 64, 60, 52], [82, 81, 77, 76, 75, 70, 68, 67, 66, 64, 62, 59], [96, 83, 78, 71, 69, 64, 58, 52], [101, 91, 83, 82, 78, 77, 76, 75, 73, 72, 70, 68, 67, 66, 64], [101, 95, 83, 82, 77, 76, 75, 73, 72, 70, 69, 68, 67, 64, 60], [78, 74, 73, 72, 71, 67, 54], [101, 96, 94, 88, 83, 82, 78, 72, 71, 69, 68, 67, 58], [94, 81, 76, 75, 72, 71, 70, 69, 67, 66, 59], [96, 94, 83, 69, 52], [101, 96, 94, 88, 83, 82, 78, 73, 68, 67, 58], [95, 82, 81, 78, 77, 76, 75, 74, 71, 70, 69], [101, 96, 88, 83, 82, 73, 72, 71, 67, 58], [101, 72, 71, 69, 58, 56], [97, 95, 77, 73, 72, 70, 69, 68, 60], [96, 95, 94, 81, 78, 71, 70, 69, 62], [101, 97, 95, 91, 82, 81, 76, 72, 70, 68, 67], [101, 99, 96, 95, 91, 83, 77, 72, 70, 69, 68], [101, 95, 94, 93, 91, 82, 80, 75, 68, 65], [101, 99, 96, 91, 80, 77, 75, 68, 65], [98, 95, 94, 93, 91, 88, 81, 80, 76, 73, 68], [96, 92, 80, 75, 71, 68], [99, 98, 97, 95, 92, 91, 90, 89, 81, 80, 79, 76], [101, 99, 98, 95, 93, 89, 88, 85, 79, 73], [100, 99, 96, 94, 93, 92, 91, 88, 87, 86, 85, 79], [96, 92, 91, 85, 78, 75, 73], [99, 97, 93, 91, 86, 80, 72], [99, 96, 87, 77, 70], [98, 94, 93, 92, 90, 88, 87, 86, 85, 84], [100, 92, 90, 89, 88, 86, 85, 83], [100, 96, 95, 88, 87, 86, 85, 84], [99, 98, 93, 86, 84, 80], [100, 89, 86, 85, 79], [98, 93, 89, 84, 80], [92, 90, 88, 85, 84], [100, 91, 85, 79], [98, 89, 85, 84], [90, 87, 86, 84], [99, 96, 93, 91], [97, 88, 86], [85, 84], [94, 86], [97, 84], [84], [87], [84], [84], [84], [102], [102], [102], [102], [102], [102], [102], [102], [102], [102], [102], [102], [102], [102], [102], [102], [102], [102], []]
letting durations = [[0], [7, 8, 9], [1, 8, 10], [5, 7, 9], [3, 6, 7], [3, 7, 9], [2, 5, 8], [8, 9, 9], [4, 8, 8], [2, 4, 10], [1, 3, 4], [4, 7, 9], [1, 5, 8], [5, 6, 10], [3, 4, 5], [2, 6, 7], [1, 3, 7], [4, 5, 10], [2, 3, 9], [8, 9, 10], [2, 8, 9], [1, 9, 10], [2, 7, 8], [2, 4, 5], [2, 5, 10], [2, 5, 10], [4, 5, 8], [4, 6, 9], [2, 8, 10], [2, 3, 3], [2, 5, 9], [3, 4, 5], [4, 8, 10], [1, 4, 7], [4, 5, 7], [2, 5, 6], [5, 5, 6], [2, 5, 10], [1, 1, 2], [2, 3, 8], [2, 3, 8], [2, 4, 8], [1, 4, 10], [2, 6, 7], [4, 7, 7], [3, 5, 10], [6, 10, 10], [4, 8, 9], [3, 5, 9], [2, 8, 9], [1, 4, 9], [3, 7, 9], [1, 4, 6], [2, 7, 9], [2, 8, 10], [1, 4, 9], [4, 4, 5], [8, 8, 10], [1, 7, 10], [3, 4, 5], [4, 9, 10], [4, 5, 9], [3, 3, 9], [6, 9, 10], [1, 4, 5], [4, 4, 9], [1, 4, 5], [2, 4, 5], [3, 3, 6], [9, 9, 10], [1, 6, 10], [6, 7, 7], [5, 7, 8], [7, 9, 10], [6, 6, 10], [6, 7, 9], [4, 5, 6], [3, 5, 9], [6, 8, 9], [1, 6, 7], [3, 4, 10], [2, 2, 8], [4, 6, 7], [3, 4, 8], [5, 7, 9], [3, 4, 8], [2, 4, 5], [2, 7, 9], [5, 6, 9], [6, 6, 6], [2, 8, 8], [6, 7, 10], [3, 7, 9], [1, 7, 8], [3, 5, 8], [1, 2, 6], [3, 5, 9], [2, 5, 8], [1, 3, 7], [1, 7, 9], [2, 5, 8], [0]]
letting resourceUsage = [[[0, 0, 0, 0]], [[4, 0, 0, 4], [0, 2, 6, 0], [0, 2, 0, 2]], [[4, 0, 1, 0], [2, 0, 1, 0], [0, 1, 0, 5]], [[5, 0, 0, 6], [4, 0, 7, 0], [0, 2, 5, 0]], [[4, 0, 0, 9], [3, 0, 5, 0], [0, 3, 0, 6]], [[0, 1, 0, 6], [3, 0, 0, 5], [0, 1, 3, 0]], [[0, 4, 8, 0], [2, 0, 8, 0], [2, 0, 0, 2]], [[3, 0, 7, 0], [3, 0, 5, 0], [0, 3, 4, 0]], [[0, 4, 2, 0], [0, 3, 1, 0], [3, 0, 0, 4]], [[3, 0, 10, 0], [3, 0, 0, 2], [2, 0, 0, 1]], [[1, 0, 1, 0], [1, 0, 0, 6], [1, 0, 0, 4]], [[0, 4, 1, 0], [0, 3, 0, 4], [2, 0, 1, 0]], [[0, 3, 0, 9], [0, 3, 4, 0], [1, 0, 4, 0]], [[0, 2, 7, 0], [3, 0, 0, 1], [2, 0, 2, 0]], [[0, 4, 6, 0], [1, 0, 3, 0], [1, 0, 1, 0]], [[0, 5, 3, 0], [0, 3, 3, 0], [0, 3, 0, 2]], [[1, 0, 6, 0], [0, 2, 6, 0], [1, 0, 5, 0]], [[5, 0, 9, 0], [0, 3, 0, 6], [2, 0, 0, 5]], [[0, 4, 0, 8], [3, 0, 0, 6], [0, 2, 0, 3]], [[1, 0, 0, 9], [1, 0, 0, 8], [1, 0, 0, 7]], [[0, 1, 5, 0], [3, 0, 0, 3], [1, 0, 0, 1]], [[4, 0, 0, 10], [2, 0, 0, 6], [0, 5, 0, 5]], [[3, 0, 0, 10], [0, 3, 5, 0], [0, 3, 2, 0]], [[0, 2, 0, 5], [3, 0, 0, 4], [3, 0, 0, 3]], [[0, 4, 5, 0], [3, 0, 3, 0], [3, 0, 2, 0]], [[2, 0, 7, 0], [0, 3, 0, 5], [1, 0, 0, 5]], [[2, 0, 0, 5], [0, 3, 5, 0], [1, 0, 0, 2]], [[0, 3, 0, 7], [3, 0, 0, 6], [0, 2, 2, 0]], [[5, 0, 0, 6], [4, 0, 0, 4], [3, 0, 7, 0]], [[4, 0, 3, 0], [0, 3, 0, 7], [2, 0, 1, 0]], [[1, 0, 0, 3], [0, 1, 0, 3], [1, 0, 0, 2]], [[0, 3, 0, 6], [2, 0, 7, 0], [2, 0, 0, 1]], [[4, 0, 0, 8], [0, 4, 3, 0], [2, 0, 2, 0]], [[1, 0, 0, 2], [0, 2, 0, 1], [1, 0, 0, 1]], [[0, 3, 6, 0], [0, 2, 6, 0], [1, 0, 0, 6]], [[5, 0, 4, 0], [3, 0, 3, 0], [2, 0, 0, 7]], [[0, 3, 0, 6], [1, 0, 0, 6], [1, 0, 2, 0]], [[1, 0, 7, 0], [1, 0, 4, 0], [0, 4, 4, 0]], [[0, 2, 2, 0], [1, 0, 2, 0], [0, 2, 0, 1]], [[3, 0, 5, 0], [0, 4, 0, 7], [1, 0, 1, 0]], [[0, 2, 5, 0], [0, 2, 0, 6], [0, 2, 1, 0]], [[4, 0, 8, 0], [0, 4, 6, 0], [2, 0, 6, 0]], [[1, 0, 0, 8], [0, 1, 0, 5], [0, 1, 0, 2]], [[0, 5, 0, 3], [3, 0, 3, 0], [0, 4, 0, 2]], [[0, 5, 4, 0], [2, 0, 0, 2], [2, 0, 2, 0]], [[4, 0, 7, 0], [0, 1, 0, 8], [0, 1, 3, 0]], [[3, 0, 0, 7], [2, 0, 0, 4], [0, 3, 2, 0]], [[0, 3, 0, 6], [0, 3, 0, 3], [0, 2, 6, 0]], [[0, 4, 0, 1], [0, 3, 0, 1], [0, 1, 4, 0]], [[2, 0, 7, 0], [1, 0, 5, 0], [0, 2, 3, 0]], [[4, 0, 0, 4], [4, 0, 6, 0], [4, 0, 0, 3]], [[4, 0, 0, 1], [0, 4, 3, 0], [0, 4, 2, 0]], [[4, 0, 6, 0], [0, 3, 4, 0], [0, 3, 0, 1]], [[0, 3, 10, 0], [3, 0, 0, 6], [0, 3, 0, 4]], [[0, 3, 10, 0], [0, 2, 9, 0], [4, 0, 9, 0]], [[0, 4, 9, 0], [3, 0, 0, 3], [2, 0, 3, 0]], [[0, 4, 10, 0], [0, 3, 0, 7], [1, 0, 1, 0]], [[0, 4, 0, 10], [0, 4, 5, 0], [0, 4, 0, 5]], [[0, 2, 0, 10], [0, 2, 5, 0], [3, 0, 0, 9]], [[0, 3, 10, 0], [0, 3, 0, 5], [3, 0, 0, 3]], [[4, 0, 0, 3], [3, 0, 10, 0], [2, 0, 10, 0]], [[4, 0, 6, 0], [3, 0, 0, 4], [1, 0, 2, 0]], [[4, 0, 6, 0], [0, 3, 0, 7], [0, 1, 2, 0]], [[4, 0, 2, 0], [3, 0, 0, 7], [0, 3, 0, 6]], [[0, 3, 8, 0], [0, 2, 0, 5], [2, 0, 1, 0]], [[3, 0, 6, 0], [0, 2, 0, 6], [0, 2, 3, 0]], [[2, 0, 0, 7], [0, 1, 6, 0], [2, 0, 0, 3]], [[0, 3, 0, 9], [0, 3, 3, 0], [1, 0, 0, 5]], [[0, 5, 0, 4], [3, 0, 5, 0], [0, 3, 0, 4]], [[3, 0, 6, 0], [0, 2, 0, 7], [0, 2, 0, 5]], [[3, 0, 8, 0], [2, 0, 0, 3], [2, 0, 0, 2]], [[2, 0, 0, 4], [1, 0, 6, 0], [1, 0, 0, 2]], [[0, 5, 1, 0], [0, 4, 1, 0], [0, 4, 0, 5]], [[4, 0, 0, 6], [3, 0, 7, 0], [0, 1, 5, 0]], [[0, 2, 0, 9], [1, 0, 5, 0], [1, 0, 0, 6]], [[0, 5, 0, 6], [1, 0, 0, 5], [1, 0, 3, 0]], [[0, 4, 8, 0], [3, 0, 8, 0], [3, 0, 0, 2]], [[5, 0, 7, 0], [5, 0, 5, 0], [5, 0, 4, 0]], [[0, 3, 2, 0], [0, 1, 1, 0], [3, 0, 0, 4]], [[3, 0, 10, 0], [0, 1, 0, 2], [0, 1, 0, 1]], [[4, 0, 1, 0], [0, 2, 0, 6], [0, 1, 0, 4]], [[0, 3, 10, 0], [4, 0, 0, 3], [4, 0, 0, 2]], [[3, 0, 0, 7], [3, 0, 2, 0], [2, 0, 1, 0]], [[2, 0, 10, 0], [0, 2, 0, 2], [1, 0, 10, 0]], [[0, 3, 5, 0], [3, 0, 0, 5], [0, 2, 0, 4]], [[0, 1, 0, 2], [0, 1, 0, 1], [0, 1, 3, 0]], [[0, 2, 10, 0], [3, 0, 5, 0], [3, 0, 3, 0]], [[2, 0, 10, 0], [2, 0, 8, 0], [0, 3, 0, 2]], [[4, 0, 8, 0], [3, 0, 0, 6], [0, 1, 0, 2]], [[0, 4, 0, 7], [1, 0, 0, 6], [1, 0, 3, 0]], [[3, 0, 0, 7], [2, 0, 2, 0], [0, 5, 0, 5]], [[4, 0, 0, 7], [4, 0, 0, 4], [0, 2, 0, 4]], [[4, 0, 6, 0], [3, 0, 5, 0], [3, 0, 3, 0]], [[0, 2, 2, 0], [0, 2, 0, 3], [1, 0, 2, 0]], [[1, 0, 0, 8], [1, 0, 3, 0], [1, 0, 1, 0]], [[4, 0, 3, 0], [0, 4, 0, 7], [0, 4, 1, 0]], [[2, 0, 0, 9], [1, 0, 0, 9], [0, 3, 0, 9]], [[0, 3, 3, 0], [0, 1, 2, 0], [3, 0, 0, 6]], [[0, 2, 1, 0], [3, 0, 0, 4], [0, 1, 0, 3]], [[0, 5, 3, 0], [3, 0, 1, 0], [3, 0, 0, 1]], [[4, 0, 10, 0], [3, 0, 0, 4], [0, 2, 0, 3]], [[0, 0, 0, 0]]]
